60
705
7
22
26
7
53
2
28
86
0 3
0 4
0 7
0 8
0 9
0 14
0 16
0 21
0 25
0 26
0 34
0 39
0 40
0 41
0 42
0 45
0 46
0 47
0 48
0 54
1 10
1 13
1 14
1 15
1 16
1 18
1 20
1 21
1 22
1 26
1 27
1 30
1 34
1 36
1 37
1 40
1 41
1 44
1 46
1 50
1 51
1 53
1 54
1 59
2 7
2 9
2 10
2 11
2 16
2 17
2 19
2 30
2 36
2 37
2 38
2 40
2 42
2 43
2 46
2 48
2 49
2 53
2 55
2 57
2 58
3 4
3 6
3 11
3 12
3 13
3 17
3 21
3 22
3 23
3 26
3 27
3 29
3 31
3 32
3 38
3 41
3 42
3 48
3 51
3 55
3 56
3 59
4 12
4 14
4 16
4 21
4 24
4 25
4 26
4 27
4 28
4 29
4 30
4 32
4 33
4 38
4 40
4 44
4 45
4 47
4 49
4 50
4 51
4 52
4 53
4 57
5 6
5 7
5 8
5 9
5 11
5 12
5 17
5 25
5 26
5 27
5 34
5 35
5 36
5 38
5 39
5 41
5 42
5 44
5 45
5 46
5 49
5 50
5 53
5 54
5 55
6 7
6 8
6 9
6 10
6 11
6 16
6 17
6 18
6 21
6 22
6 23
6 24
6 27
6 28
6 36
6 37
6 40
6 49
6 53
6 54
6 56
6 59
7 8
7 11
7 12
7 13
7 15
7 20
7 21
7 22
7 31
7 32
7 34
7 35
7 36
7 37
7 38
7 41
7 42
7 47
7 49
7 50
7 54
7 55
7 57
7 59
8 15
8 20
8 22
8 24
8 26
8 27
8 28
8 29
8 30
8 36
8 38
8 40
8 41
8 42
8 43
8 44
8 45
8 50
8 51
8 52
8 54
8 56
8 57
8 59
9 11
9 16
9 22
9 23
9 25
9 26
9 28
9 32
9 33
9 35
9 37
9 39
9 44
9 45
9 56
10 11
10 12
10 13
10 14
10 15
10 16
10 18
10 25
10 26
10 29
10 33
10 36
10 38
10 44
10 45
10 46
10 47
10 51
10 52
10 53
10 55
10 57
10 58
10 59
11 12
11 13
11 14
11 16
11 17
11 20
11 25
11 26
11 27
11 29
11 30
11 32
11 34
11 35
11 37
11 38
11 41
11 42
11 43
11 48
11 49
11 57
11 58
12 24
12 26
12 27
12 36
12 37
12 39
12 42
12 46
12 48
12 49
12 50
12 51
12 56
12 58
13 14
13 15
13 23
13 24
13 25
13 26
13 27
13 30
13 31
13 33
13 34
13 36
13 38
13 40
13 44
13 47
13 48
13 51
13 55
13 57
13 59
14 17
14 22
14 26
14 29
14 30
14 33
14 35
14 38
14 40
14 42
14 51
14 56
14 58
15 16
15 18
15 19
15 20
15 22
15 28
15 30
15 31
15 32
15 34
15 35
15 36
15 38
15 41
15 42
15 44
15 45
15 52
15 54
16 18
16 19
16 20
16 22
16 24
16 25
16 26
16 28
16 29
16 31
16 36
16 38
16 42
16 46
16 47
16 49
16 50
16 52
16 53
16 58
17 18
17 22
17 27
17 28
17 32
17 38
17 44
17 45
17 46
17 48
17 53
17 54
17 55
17 56
17 57
17 58
18 21
18 26
18 27
18 34
18 35
18 37
18 42
18 43
18 44
18 45
18 47
18 49
18 50
18 51
18 55
18 57
18 58
19 34
19 42
19 43
19 44
19 46
19 47
19 48
19 50
19 51
19 52
19 53
19 55
19 58
20 21
20 23
20 25
20 27
20 29
20 37
20 39
20 42
20 44
20 46
20 49
20 52
20 53
20 58
21 22
21 23
21 31
21 33
21 35
21 36
21 37
21 38
21 42
21 43
21 44
21 49
21 51
21 52
21 53
21 55
21 58
21 59
22 31
22 32
22 33
22 36
22 41
22 43
22 44
22 45
22 46
22 51
22 54
22 59
23 24
23 26
23 27
23 29
23 34
23 45
23 47
23 49
23 50
23 51
23 55
24 26
24 29
24 30
24 32
24 34
24 35
24 36
24 38
24 43
24 46
24 52
24 53
24 58
25 26
25 27
25 30
25 31
25 33
25 36
25 41
25 42
25 47
25 53
25 57
25 58
26 29
26 32
26 34
26 38
26 39
26 40
26 41
26 43
26 47
26 52
27 28
27 30
27 31
27 37
27 40
27 41
27 42
27 43
27 47
27 49
27 50
27 53
27 54
27 58
28 31
28 33
28 34
28 35
28 38
28 41
28 42
28 43
28 48
28 51
28 56
28 57
29 32
29 36
29 38
29 42
29 43
29 44
29 46
29 48
29 52
29 53
29 59
30 31
30 32
30 33
30 36
30 39
30 40
30 43
30 44
30 48
30 49
30 51
30 54
30 56
30 57
30 58
31 33
31 35
31 37
31 40
31 41
31 42
31 44
31 46
31 48
31 55
31 58
32 33
32 38
32 40
32 41
32 43
32 52
32 53
32 54
32 57
33 41
33 42
33 43
33 44
33 45
33 46
33 50
33 51
33 52
33 53
33 55
33 59
34 35
34 36
34 40
34 41
34 43
34 47
34 49
34 52
34 56
35 37
35 40
35 41
35 42
35 47
35 48
35 49
35 50
35 52
35 53
35 54
36 37
36 38
36 42
36 43
36 45
36 50
36 54
36 55
36 56
36 57
37 38
37 43
37 45
37 47
37 48
37 52
38 39
38 40
38 41
38 43
38 46
38 47
38 52
38 53
38 54
38 57
38 58
39 42
39 43
39 49
39 50
39 54
39 55
40 41
40 42
40 46
40 48
40 50
40 51
40 52
40 54
40 56
40 57
41 42
41 49
41 50
41 59
42 44
42 46
42 47
42 48
42 54
42 55
42 56
42 57
42 59
43 46
43 48
43 52
43 55
43 56
43 59
44 46
44 47
44 51
45 46
45 51
45 53
45 54
45 56
45 57
45 59
46 47
46 49
46 53
46 55
46 56
46 58
46 59
47 48
47 51
47 53
47 55
47 56
47 59
48 49
48 56
48 59
49 54
49 55
49 58
50 51
50 53
50 57
50 59
51 54
51 58
52 53
52 54
52 56
53 54
53 56
53 57
53 58
53 59
54 55
54 56
54 59
56 57
56 58
59 23 27 41 28 31 14 46 35
12 24 47 22 15 18 21 48 5
3 52 26 19 9 20 39 16 45
40 1 51 54 58 0 32 13 8
6 17 56 2 43 44 11 10 29
36 57 50 30 4 37 38 7 53
33 49 25 42 55 34
